T = 150;
V = 20;
Q = 15;
L = 8;
C = 7;
P = 20;
time = [|  0, 10, 10, 20, 23,  0, 10, 10, 10, 10, 19, 12, 18, 10, 12, 20, 20,  0,  0, 23, 20,  0, 19, 23,  0, 20, 12,  0, 12, 19, 20, 10, 20,  0, 10, 19, 12, 20, 12, 12, 11, 11, 11, 11, 11, 11, 11, 11, 11, 11, 11, 11, 11, 11, 11, 11, 11, 11, 11, 11, 11, 11, 11, 11, 11, 11, 11, 11, 11, 11, 11, 11, 11, 11, 11, 11, 11, 11, 11, 11,
        | 10,  0,  0, 20, 20, 10,  0, 17, 17, 17, 20,  6, 10,  0,  6, 20, 20, 10, 10, 20, 20, 10, 20, 20, 10, 20,  6, 10,  6, 20, 20,  0, 20, 10,  0, 20,  6, 20,  6,  6, 10, 10, 10, 10, 10, 10, 10, 10, 10, 10, 10, 10, 10, 10, 10, 10, 10, 10, 10, 10, 10, 10, 10, 10, 10, 10, 10, 10, 10, 10, 10, 10, 10, 10, 10, 10, 10, 10, 10, 10,
        | 10,  0,  0, 20, 20, 10,  0, 17, 17, 17, 20,  6, 10,  0,  6, 20, 20, 10, 10, 20, 20, 10, 20, 20, 10, 20,  6, 10,  6, 20, 20,  0, 20, 10,  0, 20,  6, 20,  6,  6, 10, 10, 10, 10, 10, 10, 10, 10, 10, 10, 10, 10, 10, 10, 10, 10, 10, 10, 10, 10, 10, 10, 10, 10, 10, 10, 10, 10, 10, 10, 10, 10, 10, 10, 10, 10, 10, 10, 10, 10,
        | 20, 20, 20,  0,  5, 20, 20, 13, 13, 13,  2, 15, 29, 20, 15,  0,  0, 20, 20,  5,  0, 20,  2,  5, 20,  0, 15, 20, 15,  2,  0, 20,  0, 20, 20,  2, 15,  0, 15, 15, 11, 11, 11, 11, 11, 11, 11, 11, 11, 11, 11, 11, 11, 11, 11, 11, 11, 11, 11, 11, 11, 11, 11, 11, 11, 11, 11, 11, 11, 11, 11, 11, 11, 11, 11, 11, 11, 11, 11, 11,
        | 23, 20, 20,  5,  0, 23, 20, 17, 17, 17,  7, 15, 29, 20, 15,  5,  5, 23, 23,  0,  5, 23,  7,  0, 23,  5, 15, 23, 15,  7,  5, 20,  5, 23, 20,  7, 15,  5, 15, 15, 13, 13, 13, 13, 13, 13, 13, 13, 13, 13, 13, 13, 13, 13, 13, 13, 13, 13, 13, 13, 13, 13, 13, 13, 13, 13, 13, 13, 13, 13, 13, 13, 13, 13, 13, 13, 13, 13, 13, 13,
        |  0, 10, 10, 20, 23,  0, 10, 10, 10, 10, 19, 12, 18, 10, 12, 20, 20,  0,  0, 23, 20,  0, 19, 23,  0, 20, 12,  0, 12, 19, 20, 10, 20,  0, 10, 19, 12, 20, 12, 12, 11, 11, 11, 11, 11, 11, 11, 11, 11, 11, 11, 11, 11, 11, 11, 11, 11, 11, 11, 11, 11, 11, 11, 11, 11, 11, 11, 11, 11, 11, 11, 11, 11, 11, 11, 11, 11, 11, 11, 11,
        | 10,  0,  0, 20, 20, 10,  0, 17, 17, 17, 20,  6, 10,  0,  6, 20, 20, 10, 10, 20, 20, 10, 20, 20, 10, 20,  6, 10,  6, 20, 20,  0, 20, 10,  0, 20,  6, 20,  6,  6, 10, 10, 10, 10, 10, 10, 10, 10, 10, 10, 10, 10, 10, 10, 10, 10, 10, 10, 10, 10, 10, 10, 10, 10, 10, 10, 10, 10, 10, 10, 10, 10, 10, 10, 10, 10, 10, 10, 10, 10,
        | 10, 17, 17, 13, 17, 10, 17,  0,  0,  0, 12, 15, 26, 17, 15, 13, 13, 10, 10, 17, 13, 10, 12, 17, 10, 13, 15, 10, 15, 12, 13, 17, 13, 10, 17, 12, 15, 13, 15, 15, 10, 10, 10, 10, 10, 10, 10, 10, 10, 10, 10, 10, 10, 10, 10, 10, 10, 10, 10, 10, 10, 10, 10, 10, 10, 10, 10, 10, 10, 10, 10, 10, 10, 10, 10, 10, 10, 10, 10, 10,
        | 10, 17, 17, 13, 17, 10, 17,  0,  0,  0, 12, 15, 26, 17, 15, 13, 13, 10, 10, 17, 13, 10, 12, 17, 10, 13, 15, 10, 15, 12, 13, 17, 13, 10, 17, 12, 15, 13, 15, 15, 10, 10, 10, 10, 10, 10, 10, 10, 10, 10, 10, 10, 10, 10, 10, 10, 10, 10, 10, 10, 10, 10, 10, 10, 10, 10, 10, 10, 10, 10, 10, 10, 10, 10, 10, 10, 10, 10, 10, 10,
        | 10, 17, 17, 13, 17, 10, 17,  0,  0,  0, 12, 15, 26, 17, 15, 13, 13, 10, 10, 17, 13, 10, 12, 17, 10, 13, 15, 10, 15, 12, 13, 17, 13, 10, 17, 12, 15, 13, 15, 15, 10, 10, 10, 10, 10, 10, 10, 10, 10, 10, 10, 10, 10, 10, 10, 10, 10, 10, 10, 10, 10, 10, 10, 10, 10, 10, 10, 10, 10, 10, 10, 10, 10, 10, 10, 10, 10, 10, 10, 10,
        | 19, 20, 20,  2,  7, 19, 20, 12, 12, 12,  0, 15, 29, 20, 15,  2,  2, 19, 19,  7,  2, 19,  0,  7, 19,  2, 15, 19, 15,  0,  2, 20,  2, 19, 20,  0, 15,  2, 15, 15, 10, 10, 10, 10, 10, 10, 10, 10, 10, 10, 10, 10, 10, 10, 10, 10, 10, 10, 10, 10, 10, 10, 10, 10, 10, 10, 10, 10, 10, 10, 10, 10, 10, 10, 10, 10, 10, 10, 10, 10,
        | 12,  6,  6, 15, 15, 12,  6, 15, 15, 15, 15,  0, 15,  6,  0, 15, 15, 12, 12, 15, 15, 12, 15, 15, 12, 15,  0, 12,  0, 15, 15,  6, 15, 12,  6, 15,  0, 15,  0,  0,  6,  6,  6,  6,  6,  6,  6,  6,  6,  6,  6,  6,  6,  6,  6,  6,  6,  6,  6,  6,  6,  6,  6,  6,  6,  6,  6,  6,  6,  6,  6,  6,  6,  6,  6,  6,  6,  6,  6,  6,
        | 18, 10, 10, 29, 29, 18, 10, 26, 26, 26, 29, 15,  0, 10, 15, 29, 29, 18, 18, 29, 29, 18, 29, 29, 18, 29, 15, 18, 15, 29, 29, 10, 29, 18, 10, 29, 15, 29, 15, 15, 20, 20, 20, 20, 20, 20, 20, 20, 20, 20, 20, 20, 20, 20, 20, 20, 20, 20, 20, 20, 20, 20, 20, 20, 20, 20, 20, 20, 20, 20, 20, 20, 20, 20, 20, 20, 20, 20, 20, 20,
        | 10,  0,  0, 20, 20, 10,  0, 17, 17, 17, 20,  6, 10,  0,  6, 20, 20, 10, 10, 20, 20, 10, 20, 20, 10, 20,  6, 10,  6, 20, 20,  0, 20, 10,  0, 20,  6, 20,  6,  6, 10, 10, 10, 10, 10, 10, 10, 10, 10, 10, 10, 10, 10, 10, 10, 10, 10, 10, 10, 10, 10, 10, 10, 10, 10, 10, 10, 10, 10, 10, 10, 10, 10, 10, 10, 10, 10, 10, 10, 10,
        | 12,  6,  6, 15, 15, 12,  6, 15, 15, 15, 15,  0, 15,  6,  0, 15, 15, 12, 12, 15, 15, 12, 15, 15, 12, 15,  0, 12,  0, 15, 15,  6, 15, 12,  6, 15,  0, 15,  0,  0,  6,  6,  6,  6,  6,  6,  6,  6,  6,  6,  6,  6,  6,  6,  6,  6,  6,  6,  6,  6,  6,  6,  6,  6,  6,  6,  6,  6,  6,  6,  6,  6,  6,  6,  6,  6,  6,  6,  6,  6,
        | 20, 20, 20,  0,  5, 20, 20, 13, 13, 13,  2, 15, 29, 20, 15,  0,  0, 20, 20,  5,  0, 20,  2,  5, 20,  0, 15, 20, 15,  2,  0, 20,  0, 20, 20,  2, 15,  0, 15, 15, 11, 11, 11, 11, 11, 11, 11, 11, 11, 11, 11, 11, 11, 11, 11, 11, 11, 11, 11, 11, 11, 11, 11, 11, 11, 11, 11, 11, 11, 11, 11, 11, 11, 11, 11, 11, 11, 11, 11, 11,
        | 20, 20, 20,  0,  5, 20, 20, 13, 13, 13,  2, 15, 29, 20, 15,  0,  0, 20, 20,  5,  0, 20,  2,  5, 20,  0, 15, 20, 15,  2,  0, 20,  0, 20, 20,  2, 15,  0, 15, 15, 11, 11, 11, 11, 11, 11, 11, 11, 11, 11, 11, 11, 11, 11, 11, 11, 11, 11, 11, 11, 11, 11, 11, 11, 11, 11, 11, 11, 11, 11, 11, 11, 11, 11, 11, 11, 11, 11, 11, 11,
        |  0, 10, 10, 20, 23,  0, 10, 10, 10, 10, 19, 12, 18, 10, 12, 20, 20,  0,  0, 23, 20,  0, 19, 23,  0, 20, 12,  0, 12, 19, 20, 10, 20,  0, 10, 19, 12, 20, 12, 12, 11, 11, 11, 11, 11, 11, 11, 11, 11, 11, 11, 11, 11, 11, 11, 11, 11, 11, 11, 11, 11, 11, 11, 11, 11, 11, 11, 11, 11, 11, 11, 11, 11, 11, 11, 11, 11, 11, 11, 11,
        |  0, 10, 10, 20, 23,  0, 10, 10, 10, 10, 19, 12, 18, 10, 12, 20, 20,  0,  0, 23, 20,  0, 19, 23,  0, 20, 12,  0, 12, 19, 20, 10, 20,  0, 10, 19, 12, 20, 12, 12, 11, 11, 11, 11, 11, 11, 11, 11, 11, 11, 11, 11, 11, 11, 11, 11, 11, 11, 11, 11, 11, 11, 11, 11, 11, 11, 11, 11, 11, 11, 11, 11, 11, 11, 11, 11, 11, 11, 11, 11,
        | 23, 20, 20,  5,  0, 23, 20, 17, 17, 17,  7, 15, 29, 20, 15,  5,  5, 23, 23,  0,  5, 23,  7,  0, 23,  5, 15, 23, 15,  7,  5, 20,  5, 23, 20,  7, 15,  5, 15, 15, 13, 13, 13, 13, 13, 13, 13, 13, 13, 13, 13, 13, 13, 13, 13, 13, 13, 13, 13, 13, 13, 13, 13, 13, 13, 13, 13, 13, 13, 13, 13, 13, 13, 13, 13, 13, 13, 13, 13, 13,
        | 20, 20, 20,  0,  5, 20, 20, 13, 13, 13,  2, 15, 29, 20, 15,  0,  0, 20, 20,  5,  0, 20,  2,  5, 20,  0, 15, 20, 15,  2,  0, 20,  0, 20, 20,  2, 15,  0, 15, 15, 11, 11, 11, 11, 11, 11, 11, 11, 11, 11, 11, 11, 11, 11, 11, 11, 11, 11, 11, 11, 11, 11, 11, 11, 11, 11, 11, 11, 11, 11, 11, 11, 11, 11, 11, 11, 11, 11, 11, 11,
        |  0, 10, 10, 20, 23,  0, 10, 10, 10, 10, 19, 12, 18, 10, 12, 20, 20,  0,  0, 23, 20,  0, 19, 23,  0, 20, 12,  0, 12, 19, 20, 10, 20,  0, 10, 19, 12, 20, 12, 12, 11, 11, 11, 11, 11, 11, 11, 11, 11, 11, 11, 11, 11, 11, 11, 11, 11, 11, 11, 11, 11, 11, 11, 11, 11, 11, 11, 11, 11, 11, 11, 11, 11, 11, 11, 11, 11, 11, 11, 11,
        | 19, 20, 20,  2,  7, 19, 20, 12, 12, 12,  0, 15, 29, 20, 15,  2,  2, 19, 19,  7,  2, 19,  0,  7, 19,  2, 15, 19, 15,  0,  2, 20,  2, 19, 20,  0, 15,  2, 15, 15, 10, 10, 10, 10, 10, 10, 10, 10, 10, 10, 10, 10, 10, 10, 10, 10, 10, 10, 10, 10, 10, 10, 10, 10, 10, 10, 10, 10, 10, 10, 10, 10, 10, 10, 10, 10, 10, 10, 10, 10,
        | 23, 20, 20,  5,  0, 23, 20, 17, 17, 17,  7, 15, 29, 20, 15,  5,  5, 23, 23,  0,  5, 23,  7,  0, 23,  5, 15, 23, 15,  7,  5, 20,  5, 23, 20,  7, 15,  5, 15, 15, 13, 13, 13, 13, 13, 13, 13, 13, 13, 13, 13, 13, 13, 13, 13, 13, 13, 13, 13, 13, 13, 13, 13, 13, 13, 13, 13, 13, 13, 13, 13, 13, 13, 13, 13, 13, 13, 13, 13, 13,
        |  0, 10, 10, 20, 23,  0, 10, 10, 10, 10, 19, 12, 18, 10, 12, 20, 20,  0,  0, 23, 20,  0, 19, 23,  0, 20, 12,  0, 12, 19, 20, 10, 20,  0, 10, 19, 12, 20, 12, 12, 11, 11, 11, 11, 11, 11, 11, 11, 11, 11, 11, 11, 11, 11, 11, 11, 11, 11, 11, 11, 11, 11, 11, 11, 11, 11, 11, 11, 11, 11, 11, 11, 11, 11, 11, 11, 11, 11, 11, 11,
        | 20, 20, 20,  0,  5, 20, 20, 13, 13, 13,  2, 15, 29, 20, 15,  0,  0, 20, 20,  5,  0, 20,  2,  5, 20,  0, 15, 20, 15,  2,  0, 20,  0, 20, 20,  2, 15,  0, 15, 15, 11, 11, 11, 11, 11, 11, 11, 11, 11, 11, 11, 11, 11, 11, 11, 11, 11, 11, 11, 11, 11, 11, 11, 11, 11, 11, 11, 11, 11, 11, 11, 11, 11, 11, 11, 11, 11, 11, 11, 11,
        | 12,  6,  6, 15, 15, 12,  6, 15, 15, 15, 15,  0, 15,  6,  0, 15, 15, 12, 12, 15, 15, 12, 15, 15, 12, 15,  0, 12,  0, 15, 15,  6, 15, 12,  6, 15,  0, 15,  0,  0,  6,  6,  6,  6,  6,  6,  6,  6,  6,  6,  6,  6,  6,  6,  6,  6,  6,  6,  6,  6,  6,  6,  6,  6,  6,  6,  6,  6,  6,  6,  6,  6,  6,  6,  6,  6,  6,  6,  6,  6,
        |  0, 10, 10, 20, 23,  0, 10, 10, 10, 10, 19, 12, 18, 10, 12, 20, 20,  0,  0, 23, 20,  0, 19, 23,  0, 20, 12,  0, 12, 19, 20, 10, 20,  0, 10, 19, 12, 20, 12, 12, 11, 11, 11, 11, 11, 11, 11, 11, 11, 11, 11, 11, 11, 11, 11, 11, 11, 11, 11, 11, 11, 11, 11, 11, 11, 11, 11, 11, 11, 11, 11, 11, 11, 11, 11, 11, 11, 11, 11, 11,
        | 12,  6,  6, 15, 15, 12,  6, 15, 15, 15, 15,  0, 15,  6,  0, 15, 15, 12, 12, 15, 15, 12, 15, 15, 12, 15,  0, 12,  0, 15, 15,  6, 15, 12,  6, 15,  0, 15,  0,  0,  6,  6,  6,  6,  6,  6,  6,  6,  6,  6,  6,  6,  6,  6,  6,  6,  6,  6,  6,  6,  6,  6,  6,  6,  6,  6,  6,  6,  6,  6,  6,  6,  6,  6,  6,  6,  6,  6,  6,  6,
        | 19, 20, 20,  2,  7, 19, 20, 12, 12, 12,  0, 15, 29, 20, 15,  2,  2, 19, 19,  7,  2, 19,  0,  7, 19,  2, 15, 19, 15,  0,  2, 20,  2, 19, 20,  0, 15,  2, 15, 15, 10, 10, 10, 10, 10, 10, 10, 10, 10, 10, 10, 10, 10, 10, 10, 10, 10, 10, 10, 10, 10, 10, 10, 10, 10, 10, 10, 10, 10, 10, 10, 10, 10, 10, 10, 10, 10, 10, 10, 10,
        | 20, 20, 20,  0,  5, 20, 20, 13, 13, 13,  2, 15, 29, 20, 15,  0,  0, 20, 20,  5,  0, 20,  2,  5, 20,  0, 15, 20, 15,  2,  0, 20,  0, 20, 20,  2, 15,  0, 15, 15, 11, 11, 11, 11, 11, 11, 11, 11, 11, 11, 11, 11, 11, 11, 11, 11, 11, 11, 11, 11, 11, 11, 11, 11, 11, 11, 11, 11, 11, 11, 11, 11, 11, 11, 11, 11, 11, 11, 11, 11,
        | 10,  0,  0, 20, 20, 10,  0, 17, 17, 17, 20,  6, 10,  0,  6, 20, 20, 10, 10, 20, 20, 10, 20, 20, 10, 20,  6, 10,  6, 20, 20,  0, 20, 10,  0, 20,  6, 20,  6,  6, 10, 10, 10, 10, 10, 10, 10, 10, 10, 10, 10, 10, 10, 10, 10, 10, 10, 10, 10, 10, 10, 10, 10, 10, 10, 10, 10, 10, 10, 10, 10, 10, 10, 10, 10, 10, 10, 10, 10, 10,
        | 20, 20, 20,  0,  5, 20, 20, 13, 13, 13,  2, 15, 29, 20, 15,  0,  0, 20, 20,  5,  0, 20,  2,  5, 20,  0, 15, 20, 15,  2,  0, 20,  0, 20, 20,  2, 15,  0, 15, 15, 11, 11, 11, 11, 11, 11, 11, 11, 11, 11, 11, 11, 11, 11, 11, 11, 11, 11, 11, 11, 11, 11, 11, 11, 11, 11, 11, 11, 11, 11, 11, 11, 11, 11, 11, 11, 11, 11, 11, 11,
        |  0, 10, 10, 20, 23,  0, 10, 10, 10, 10, 19, 12, 18, 10, 12, 20, 20,  0,  0, 23, 20,  0, 19, 23,  0, 20, 12,  0, 12, 19, 20, 10, 20,  0, 10, 19, 12, 20, 12, 12, 11, 11, 11, 11, 11, 11, 11, 11, 11, 11, 11, 11, 11, 11, 11, 11, 11, 11, 11, 11, 11, 11, 11, 11, 11, 11, 11, 11, 11, 11, 11, 11, 11, 11, 11, 11, 11, 11, 11, 11,
        | 10,  0,  0, 20, 20, 10,  0, 17, 17, 17, 20,  6, 10,  0,  6, 20, 20, 10, 10, 20, 20, 10, 20, 20, 10, 20,  6, 10,  6, 20, 20,  0, 20, 10,  0, 20,  6, 20,  6,  6, 10, 10, 10, 10, 10, 10, 10, 10, 10, 10, 10, 10, 10, 10, 10, 10, 10, 10, 10, 10, 10, 10, 10, 10, 10, 10, 10, 10, 10, 10, 10, 10, 10, 10, 10, 10, 10, 10, 10, 10,
        | 19, 20, 20,  2,  7, 19, 20, 12, 12, 12,  0, 15, 29, 20, 15,  2,  2, 19, 19,  7,  2, 19,  0,  7, 19,  2, 15, 19, 15,  0,  2, 20,  2, 19, 20,  0, 15,  2, 15, 15, 10, 10, 10, 10, 10, 10, 10, 10, 10, 10, 10, 10, 10, 10, 10, 10, 10, 10, 10, 10, 10, 10, 10, 10, 10, 10, 10, 10, 10, 10, 10, 10, 10, 10, 10, 10, 10, 10, 10, 10,
        | 12,  6,  6, 15, 15, 12,  6, 15, 15, 15, 15,  0, 15,  6,  0, 15, 15, 12, 12, 15, 15, 12, 15, 15, 12, 15,  0, 12,  0, 15, 15,  6, 15, 12,  6, 15,  0, 15,  0,  0,  6,  6,  6,  6,  6,  6,  6,  6,  6,  6,  6,  6,  6,  6,  6,  6,  6,  6,  6,  6,  6,  6,  6,  6,  6,  6,  6,  6,  6,  6,  6,  6,  6,  6,  6,  6,  6,  6,  6,  6,
        | 20, 20, 20,  0,  5, 20, 20, 13, 13, 13,  2, 15, 29, 20, 15,  0,  0, 20, 20,  5,  0, 20,  2,  5, 20,  0, 15, 20, 15,  2,  0, 20,  0, 20, 20,  2, 15,  0, 15, 15, 11, 11, 11, 11, 11, 11, 11, 11, 11, 11, 11, 11, 11, 11, 11, 11, 11, 11, 11, 11, 11, 11, 11, 11, 11, 11, 11, 11, 11, 11, 11, 11, 11, 11, 11, 11, 11, 11, 11, 11,
        | 12,  6,  6, 15, 15, 12,  6, 15, 15, 15, 15,  0, 15,  6,  0, 15, 15, 12, 12, 15, 15, 12, 15, 15, 12, 15,  0, 12,  0, 15, 15,  6, 15, 12,  6, 15,  0, 15,  0,  0,  6,  6,  6,  6,  6,  6,  6,  6,  6,  6,  6,  6,  6,  6,  6,  6,  6,  6,  6,  6,  6,  6,  6,  6,  6,  6,  6,  6,  6,  6,  6,  6,  6,  6,  6,  6,  6,  6,  6,  6,
        | 12,  6,  6, 15, 15, 12,  6, 15, 15, 15, 15,  0, 15,  6,  0, 15, 15, 12, 12, 15, 15, 12, 15, 15, 12, 15,  0, 12,  0, 15, 15,  6, 15, 12,  6, 15,  0, 15,  0,  0,  6,  6,  6,  6,  6,  6,  6,  6,  6,  6,  6,  6,  6,  6,  6,  6,  6,  6,  6,  6,  6,  6,  6,  6,  6,  6,  6,  6,  6,  6,  6,  6,  6,  6,  6,  6,  6,  6,  6,  6,
        | 11, 10, 10, 11, 13, 11, 10, 10, 10, 10, 10,  6, 20, 10,  6, 11, 11, 11, 11, 13, 11, 11, 10, 13, 11, 11,  6, 11,  6, 10, 11, 10, 11, 11, 10, 10,  6, 11,  6,  6,  0,  0,  0,  0,  0,  0,  0,  0,  0,  0,  0,  0,  0,  0,  0,  0,  0,  0,  0,  0,  0,  0,  0,  0,  0,  0,  0,  0,  0,  0,  0,  0,  0,  0,  0,  0,  0,  0,  0,  0,
        | 11, 10, 10, 11, 13, 11, 10, 10, 10, 10, 10,  6, 20, 10,  6, 11, 11, 11, 11, 13, 11, 11, 10, 13, 11, 11,  6, 11,  6, 10, 11, 10, 11, 11, 10, 10,  6, 11,  6,  6,  0,  0,  0,  0,  0,  0,  0,  0,  0,  0,  0,  0,  0,  0,  0,  0,  0,  0,  0,  0,  0,  0,  0,  0,  0,  0,  0,  0,  0,  0,  0,  0,  0,  0,  0,  0,  0,  0,  0,  0,
        | 11, 10, 10, 11, 13, 11, 10, 10, 10, 10, 10,  6, 20, 10,  6, 11, 11, 11, 11, 13, 11, 11, 10, 13, 11, 11,  6, 11,  6, 10, 11, 10, 11, 11, 10, 10,  6, 11,  6,  6,  0,  0,  0,  0,  0,  0,  0,  0,  0,  0,  0,  0,  0,  0,  0,  0,  0,  0,  0,  0,  0,  0,  0,  0,  0,  0,  0,  0,  0,  0,  0,  0,  0,  0,  0,  0,  0,  0,  0,  0,
        | 11, 10, 10, 11, 13, 11, 10, 10, 10, 10, 10,  6, 20, 10,  6, 11, 11, 11, 11, 13, 11, 11, 10, 13, 11, 11,  6, 11,  6, 10, 11, 10, 11, 11, 10, 10,  6, 11,  6,  6,  0,  0,  0,  0,  0,  0,  0,  0,  0,  0,  0,  0,  0,  0,  0,  0,  0,  0,  0,  0,  0,  0,  0,  0,  0,  0,  0,  0,  0,  0,  0,  0,  0,  0,  0,  0,  0,  0,  0,  0,
        | 11, 10, 10, 11, 13, 11, 10, 10, 10, 10, 10,  6, 20, 10,  6, 11, 11, 11, 11, 13, 11, 11, 10, 13, 11, 11,  6, 11,  6, 10, 11, 10, 11, 11, 10, 10,  6, 11,  6,  6,  0,  0,  0,  0,  0,  0,  0,  0,  0,  0,  0,  0,  0,  0,  0,  0,  0,  0,  0,  0,  0,  0,  0,  0,  0,  0,  0,  0,  0,  0,  0,  0,  0,  0,  0,  0,  0,  0,  0,  0,
        | 11, 10, 10, 11, 13, 11, 10, 10, 10, 10, 10,  6, 20, 10,  6, 11, 11, 11, 11, 13, 11, 11, 10, 13, 11, 11,  6, 11,  6, 10, 11, 10, 11, 11, 10, 10,  6, 11,  6,  6,  0,  0,  0,  0,  0,  0,  0,  0,  0,  0,  0,  0,  0,  0,  0,  0,  0,  0,  0,  0,  0,  0,  0,  0,  0,  0,  0,  0,  0,  0,  0,  0,  0,  0,  0,  0,  0,  0,  0,  0,
        | 11, 10, 10, 11, 13, 11, 10, 10, 10, 10, 10,  6, 20, 10,  6, 11, 11, 11, 11, 13, 11, 11, 10, 13, 11, 11,  6, 11,  6, 10, 11, 10, 11, 11, 10, 10,  6, 11,  6,  6,  0,  0,  0,  0,  0,  0,  0,  0,  0,  0,  0,  0,  0,  0,  0,  0,  0,  0,  0,  0,  0,  0,  0,  0,  0,  0,  0,  0,  0,  0,  0,  0,  0,  0,  0,  0,  0,  0,  0,  0,
        | 11, 10, 10, 11, 13, 11, 10, 10, 10, 10, 10,  6, 20, 10,  6, 11, 11, 11, 11, 13, 11, 11, 10, 13, 11, 11,  6, 11,  6, 10, 11, 10, 11, 11, 10, 10,  6, 11,  6,  6,  0,  0,  0,  0,  0,  0,  0,  0,  0,  0,  0,  0,  0,  0,  0,  0,  0,  0,  0,  0,  0,  0,  0,  0,  0,  0,  0,  0,  0,  0,  0,  0,  0,  0,  0,  0,  0,  0,  0,  0,
        | 11, 10, 10, 11, 13, 11, 10, 10, 10, 10, 10,  6, 20, 10,  6, 11, 11, 11, 11, 13, 11, 11, 10, 13, 11, 11,  6, 11,  6, 10, 11, 10, 11, 11, 10, 10,  6, 11,  6,  6,  0,  0,  0,  0,  0,  0,  0,  0,  0,  0,  0,  0,  0,  0,  0,  0,  0,  0,  0,  0,  0,  0,  0,  0,  0,  0,  0,  0,  0,  0,  0,  0,  0,  0,  0,  0,  0,  0,  0,  0,
        | 11, 10, 10, 11, 13, 11, 10, 10, 10, 10, 10,  6, 20, 10,  6, 11, 11, 11, 11, 13, 11, 11, 10, 13, 11, 11,  6, 11,  6, 10, 11, 10, 11, 11, 10, 10,  6, 11,  6,  6,  0,  0,  0,  0,  0,  0,  0,  0,  0,  0,  0,  0,  0,  0,  0,  0,  0,  0,  0,  0,  0,  0,  0,  0,  0,  0,  0,  0,  0,  0,  0,  0,  0,  0,  0,  0,  0,  0,  0,  0,
        | 11, 10, 10, 11, 13, 11, 10, 10, 10, 10, 10,  6, 20, 10,  6, 11, 11, 11, 11, 13, 11, 11, 10, 13, 11, 11,  6, 11,  6, 10, 11, 10, 11, 11, 10, 10,  6, 11,  6,  6,  0,  0,  0,  0,  0,  0,  0,  0,  0,  0,  0,  0,  0,  0,  0,  0,  0,  0,  0,  0,  0,  0,  0,  0,  0,  0,  0,  0,  0,  0,  0,  0,  0,  0,  0,  0,  0,  0,  0,  0,
        | 11, 10, 10, 11, 13, 11, 10, 10, 10, 10, 10,  6, 20, 10,  6, 11, 11, 11, 11, 13, 11, 11, 10, 13, 11, 11,  6, 11,  6, 10, 11, 10, 11, 11, 10, 10,  6, 11,  6,  6,  0,  0,  0,  0,  0,  0,  0,  0,  0,  0,  0,  0,  0,  0,  0,  0,  0,  0,  0,  0,  0,  0,  0,  0,  0,  0,  0,  0,  0,  0,  0,  0,  0,  0,  0,  0,  0,  0,  0,  0,
        | 11, 10, 10, 11, 13, 11, 10, 10, 10, 10, 10,  6, 20, 10,  6, 11, 11, 11, 11, 13, 11, 11, 10, 13, 11, 11,  6, 11,  6, 10, 11, 10, 11, 11, 10, 10,  6, 11,  6,  6,  0,  0,  0,  0,  0,  0,  0,  0,  0,  0,  0,  0,  0,  0,  0,  0,  0,  0,  0,  0,  0,  0,  0,  0,  0,  0,  0,  0,  0,  0,  0,  0,  0,  0,  0,  0,  0,  0,  0,  0,
        | 11, 10, 10, 11, 13, 11, 10, 10, 10, 10, 10,  6, 20, 10,  6, 11, 11, 11, 11, 13, 11, 11, 10, 13, 11, 11,  6, 11,  6, 10, 11, 10, 11, 11, 10, 10,  6, 11,  6,  6,  0,  0,  0,  0,  0,  0,  0,  0,  0,  0,  0,  0,  0,  0,  0,  0,  0,  0,  0,  0,  0,  0,  0,  0,  0,  0,  0,  0,  0,  0,  0,  0,  0,  0,  0,  0,  0,  0,  0,  0,
        | 11, 10, 10, 11, 13, 11, 10, 10, 10, 10, 10,  6, 20, 10,  6, 11, 11, 11, 11, 13, 11, 11, 10, 13, 11, 11,  6, 11,  6, 10, 11, 10, 11, 11, 10, 10,  6, 11,  6,  6,  0,  0,  0,  0,  0,  0,  0,  0,  0,  0,  0,  0,  0,  0,  0,  0,  0,  0,  0,  0,  0,  0,  0,  0,  0,  0,  0,  0,  0,  0,  0,  0,  0,  0,  0,  0,  0,  0,  0,  0,
        | 11, 10, 10, 11, 13, 11, 10, 10, 10, 10, 10,  6, 20, 10,  6, 11, 11, 11, 11, 13, 11, 11, 10, 13, 11, 11,  6, 11,  6, 10, 11, 10, 11, 11, 10, 10,  6, 11,  6,  6,  0,  0,  0,  0,  0,  0,  0,  0,  0,  0,  0,  0,  0,  0,  0,  0,  0,  0,  0,  0,  0,  0,  0,  0,  0,  0,  0,  0,  0,  0,  0,  0,  0,  0,  0,  0,  0,  0,  0,  0,
        | 11, 10, 10, 11, 13, 11, 10, 10, 10, 10, 10,  6, 20, 10,  6, 11, 11, 11, 11, 13, 11, 11, 10, 13, 11, 11,  6, 11,  6, 10, 11, 10, 11, 11, 10, 10,  6, 11,  6,  6,  0,  0,  0,  0,  0,  0,  0,  0,  0,  0,  0,  0,  0,  0,  0,  0,  0,  0,  0,  0,  0,  0,  0,  0,  0,  0,  0,  0,  0,  0,  0,  0,  0,  0,  0,  0,  0,  0,  0,  0,
        | 11, 10, 10, 11, 13, 11, 10, 10, 10, 10, 10,  6, 20, 10,  6, 11, 11, 11, 11, 13, 11, 11, 10, 13, 11, 11,  6, 11,  6, 10, 11, 10, 11, 11, 10, 10,  6, 11,  6,  6,  0,  0,  0,  0,  0,  0,  0,  0,  0,  0,  0,  0,  0,  0,  0,  0,  0,  0,  0,  0,  0,  0,  0,  0,  0,  0,  0,  0,  0,  0,  0,  0,  0,  0,  0,  0,  0,  0,  0,  0,
        | 11, 10, 10, 11, 13, 11, 10, 10, 10, 10, 10,  6, 20, 10,  6, 11, 11, 11, 11, 13, 11, 11, 10, 13, 11, 11,  6, 11,  6, 10, 11, 10, 11, 11, 10, 10,  6, 11,  6,  6,  0,  0,  0,  0,  0,  0,  0,  0,  0,  0,  0,  0,  0,  0,  0,  0,  0,  0,  0,  0,  0,  0,  0,  0,  0,  0,  0,  0,  0,  0,  0,  0,  0,  0,  0,  0,  0,  0,  0,  0,
        | 11, 10, 10, 11, 13, 11, 10, 10, 10, 10, 10,  6, 20, 10,  6, 11, 11, 11, 11, 13, 11, 11, 10, 13, 11, 11,  6, 11,  6, 10, 11, 10, 11, 11, 10, 10,  6, 11,  6,  6,  0,  0,  0,  0,  0,  0,  0,  0,  0,  0,  0,  0,  0,  0,  0,  0,  0,  0,  0,  0,  0,  0,  0,  0,  0,  0,  0,  0,  0,  0,  0,  0,  0,  0,  0,  0,  0,  0,  0,  0,
        | 11, 10, 10, 11, 13, 11, 10, 10, 10, 10, 10,  6, 20, 10,  6, 11, 11, 11, 11, 13, 11, 11, 10, 13, 11, 11,  6, 11,  6, 10, 11, 10, 11, 11, 10, 10,  6, 11,  6,  6,  0,  0,  0,  0,  0,  0,  0,  0,  0,  0,  0,  0,  0,  0,  0,  0,  0,  0,  0,  0,  0,  0,  0,  0,  0,  0,  0,  0,  0,  0,  0,  0,  0,  0,  0,  0,  0,  0,  0,  0,
        | 11, 10, 10, 11, 13, 11, 10, 10, 10, 10, 10,  6, 20, 10,  6, 11, 11, 11, 11, 13, 11, 11, 10, 13, 11, 11,  6, 11,  6, 10, 11, 10, 11, 11, 10, 10,  6, 11,  6,  6,  0,  0,  0,  0,  0,  0,  0,  0,  0,  0,  0,  0,  0,  0,  0,  0,  0,  0,  0,  0,  0,  0,  0,  0,  0,  0,  0,  0,  0,  0,  0,  0,  0,  0,  0,  0,  0,  0,  0,  0,
        | 11, 10, 10, 11, 13, 11, 10, 10, 10, 10, 10,  6, 20, 10,  6, 11, 11, 11, 11, 13, 11, 11, 10, 13, 11, 11,  6, 11,  6, 10, 11, 10, 11, 11, 10, 10,  6, 11,  6,  6,  0,  0,  0,  0,  0,  0,  0,  0,  0,  0,  0,  0,  0,  0,  0,  0,  0,  0,  0,  0,  0,  0,  0,  0,  0,  0,  0,  0,  0,  0,  0,  0,  0,  0,  0,  0,  0,  0,  0,  0,
        | 11, 10, 10, 11, 13, 11, 10, 10, 10, 10, 10,  6, 20, 10,  6, 11, 11, 11, 11, 13, 11, 11, 10, 13, 11, 11,  6, 11,  6, 10, 11, 10, 11, 11, 10, 10,  6, 11,  6,  6,  0,  0,  0,  0,  0,  0,  0,  0,  0,  0,  0,  0,  0,  0,  0,  0,  0,  0,  0,  0,  0,  0,  0,  0,  0,  0,  0,  0,  0,  0,  0,  0,  0,  0,  0,  0,  0,  0,  0,  0,
        | 11, 10, 10, 11, 13, 11, 10, 10, 10, 10, 10,  6, 20, 10,  6, 11, 11, 11, 11, 13, 11, 11, 10, 13, 11, 11,  6, 11,  6, 10, 11, 10, 11, 11, 10, 10,  6, 11,  6,  6,  0,  0,  0,  0,  0,  0,  0,  0,  0,  0,  0,  0,  0,  0,  0,  0,  0,  0,  0,  0,  0,  0,  0,  0,  0,  0,  0,  0,  0,  0,  0,  0,  0,  0,  0,  0,  0,  0,  0,  0,
        | 11, 10, 10, 11, 13, 11, 10, 10, 10, 10, 10,  6, 20, 10,  6, 11, 11, 11, 11, 13, 11, 11, 10, 13, 11, 11,  6, 11,  6, 10, 11, 10, 11, 11, 10, 10,  6, 11,  6,  6,  0,  0,  0,  0,  0,  0,  0,  0,  0,  0,  0,  0,  0,  0,  0,  0,  0,  0,  0,  0,  0,  0,  0,  0,  0,  0,  0,  0,  0,  0,  0,  0,  0,  0,  0,  0,  0,  0,  0,  0,
        | 11, 10, 10, 11, 13, 11, 10, 10, 10, 10, 10,  6, 20, 10,  6, 11, 11, 11, 11, 13, 11, 11, 10, 13, 11, 11,  6, 11,  6, 10, 11, 10, 11, 11, 10, 10,  6, 11,  6,  6,  0,  0,  0,  0,  0,  0,  0,  0,  0,  0,  0,  0,  0,  0,  0,  0,  0,  0,  0,  0,  0,  0,  0,  0,  0,  0,  0,  0,  0,  0,  0,  0,  0,  0,  0,  0,  0,  0,  0,  0,
        | 11, 10, 10, 11, 13, 11, 10, 10, 10, 10, 10,  6, 20, 10,  6, 11, 11, 11, 11, 13, 11, 11, 10, 13, 11, 11,  6, 11,  6, 10, 11, 10, 11, 11, 10, 10,  6, 11,  6,  6,  0,  0,  0,  0,  0,  0,  0,  0,  0,  0,  0,  0,  0,  0,  0,  0,  0,  0,  0,  0,  0,  0,  0,  0,  0,  0,  0,  0,  0,  0,  0,  0,  0,  0,  0,  0,  0,  0,  0,  0,
        | 11, 10, 10, 11, 13, 11, 10, 10, 10, 10, 10,  6, 20, 10,  6, 11, 11, 11, 11, 13, 11, 11, 10, 13, 11, 11,  6, 11,  6, 10, 11, 10, 11, 11, 10, 10,  6, 11,  6,  6,  0,  0,  0,  0,  0,  0,  0,  0,  0,  0,  0,  0,  0,  0,  0,  0,  0,  0,  0,  0,  0,  0,  0,  0,  0,  0,  0,  0,  0,  0,  0,  0,  0,  0,  0,  0,  0,  0,  0,  0,
        | 11, 10, 10, 11, 13, 11, 10, 10, 10, 10, 10,  6, 20, 10,  6, 11, 11, 11, 11, 13, 11, 11, 10, 13, 11, 11,  6, 11,  6, 10, 11, 10, 11, 11, 10, 10,  6, 11,  6,  6,  0,  0,  0,  0,  0,  0,  0,  0,  0,  0,  0,  0,  0,  0,  0,  0,  0,  0,  0,  0,  0,  0,  0,  0,  0,  0,  0,  0,  0,  0,  0,  0,  0,  0,  0,  0,  0,  0,  0,  0,
        | 11, 10, 10, 11, 13, 11, 10, 10, 10, 10, 10,  6, 20, 10,  6, 11, 11, 11, 11, 13, 11, 11, 10, 13, 11, 11,  6, 11,  6, 10, 11, 10, 11, 11, 10, 10,  6, 11,  6,  6,  0,  0,  0,  0,  0,  0,  0,  0,  0,  0,  0,  0,  0,  0,  0,  0,  0,  0,  0,  0,  0,  0,  0,  0,  0,  0,  0,  0,  0,  0,  0,  0,  0,  0,  0,  0,  0,  0,  0,  0,
        | 11, 10, 10, 11, 13, 11, 10, 10, 10, 10, 10,  6, 20, 10,  6, 11, 11, 11, 11, 13, 11, 11, 10, 13, 11, 11,  6, 11,  6, 10, 11, 10, 11, 11, 10, 10,  6, 11,  6,  6,  0,  0,  0,  0,  0,  0,  0,  0,  0,  0,  0,  0,  0,  0,  0,  0,  0,  0,  0,  0,  0,  0,  0,  0,  0,  0,  0,  0,  0,  0,  0,  0,  0,  0,  0,  0,  0,  0,  0,  0,
        | 11, 10, 10, 11, 13, 11, 10, 10, 10, 10, 10,  6, 20, 10,  6, 11, 11, 11, 11, 13, 11, 11, 10, 13, 11, 11,  6, 11,  6, 10, 11, 10, 11, 11, 10, 10,  6, 11,  6,  6,  0,  0,  0,  0,  0,  0,  0,  0,  0,  0,  0,  0,  0,  0,  0,  0,  0,  0,  0,  0,  0,  0,  0,  0,  0,  0,  0,  0,  0,  0,  0,  0,  0,  0,  0,  0,  0,  0,  0,  0,
        | 11, 10, 10, 11, 13, 11, 10, 10, 10, 10, 10,  6, 20, 10,  6, 11, 11, 11, 11, 13, 11, 11, 10, 13, 11, 11,  6, 11,  6, 10, 11, 10, 11, 11, 10, 10,  6, 11,  6,  6,  0,  0,  0,  0,  0,  0,  0,  0,  0,  0,  0,  0,  0,  0,  0,  0,  0,  0,  0,  0,  0,  0,  0,  0,  0,  0,  0,  0,  0,  0,  0,  0,  0,  0,  0,  0,  0,  0,  0,  0,
        | 11, 10, 10, 11, 13, 11, 10, 10, 10, 10, 10,  6, 20, 10,  6, 11, 11, 11, 11, 13, 11, 11, 10, 13, 11, 11,  6, 11,  6, 10, 11, 10, 11, 11, 10, 10,  6, 11,  6,  6,  0,  0,  0,  0,  0,  0,  0,  0,  0,  0,  0,  0,  0,  0,  0,  0,  0,  0,  0,  0,  0,  0,  0,  0,  0,  0,  0,  0,  0,  0,  0,  0,  0,  0,  0,  0,  0,  0,  0,  0,
        | 11, 10, 10, 11, 13, 11, 10, 10, 10, 10, 10,  6, 20, 10,  6, 11, 11, 11, 11, 13, 11, 11, 10, 13, 11, 11,  6, 11,  6, 10, 11, 10, 11, 11, 10, 10,  6, 11,  6,  6,  0,  0,  0,  0,  0,  0,  0,  0,  0,  0,  0,  0,  0,  0,  0,  0,  0,  0,  0,  0,  0,  0,  0,  0,  0,  0,  0,  0,  0,  0,  0,  0,  0,  0,  0,  0,  0,  0,  0,  0,
        | 11, 10, 10, 11, 13, 11, 10, 10, 10, 10, 10,  6, 20, 10,  6, 11, 11, 11, 11, 13, 11, 11, 10, 13, 11, 11,  6, 11,  6, 10, 11, 10, 11, 11, 10, 10,  6, 11,  6,  6,  0,  0,  0,  0,  0,  0,  0,  0,  0,  0,  0,  0,  0,  0,  0,  0,  0,  0,  0,  0,  0,  0,  0,  0,  0,  0,  0,  0,  0,  0,  0,  0,  0,  0,  0,  0,  0,  0,  0,  0,
        | 11, 10, 10, 11, 13, 11, 10, 10, 10, 10, 10,  6, 20, 10,  6, 11, 11, 11, 11, 13, 11, 11, 10, 13, 11, 11,  6, 11,  6, 10, 11, 10, 11, 11, 10, 10,  6, 11,  6,  6,  0,  0,  0,  0,  0,  0,  0,  0,  0,  0,  0,  0,  0,  0,  0,  0,  0,  0,  0,  0,  0,  0,  0,  0,  0,  0,  0,  0,  0,  0,  0,  0,  0,  0,  0,  0,  0,  0,  0,  0,
        | 11, 10, 10, 11, 13, 11, 10, 10, 10, 10, 10,  6, 20, 10,  6, 11, 11, 11, 11, 13, 11, 11, 10, 13, 11, 11,  6, 11,  6, 10, 11, 10, 11, 11, 10, 10,  6, 11,  6,  6,  0,  0,  0,  0,  0,  0,  0,  0,  0,  0,  0,  0,  0,  0,  0,  0,  0,  0,  0,  0,  0,  0,  0,  0,  0,  0,  0,  0,  0,  0,  0,  0,  0,  0,  0,  0,  0,  0,  0,  0,
        | 11, 10, 10, 11, 13, 11, 10, 10, 10, 10, 10,  6, 20, 10,  6, 11, 11, 11, 11, 13, 11, 11, 10, 13, 11, 11,  6, 11,  6, 10, 11, 10, 11, 11, 10, 10,  6, 11,  6,  6,  0,  0,  0,  0,  0,  0,  0,  0,  0,  0,  0,  0,  0,  0,  0,  0,  0,  0,  0,  0,  0,  0,  0,  0,  0,  0,  0,  0,  0,  0,  0,  0,  0,  0,  0,  0,  0,  0,  0,  0|];
l =     [  7,  5,  5,  1,  4,  7,  5,  3,  3,  3,  6,  2,  8,  5,  2,  1,  1,  7,  7,  4,  1,  7,  6,  4,  7,  1,  2,  7,  2,  6,  1,  5,  1,  7,  5,  6,  2,  1,  2,  2];
a =     [ 11, 26, 19, 11, 22, 15, 40, 36, 13, 13, 10,  7, 20, 21, 45, 62, 13, 36, 15, 36, 47, 49, 55, 34, 63, 52, 57, 65, 46, 39, 22, 31, 63, 41, 64, 77, 47, 69, 37, 69];
b =     [ 46, 49, 35, 34, 38, 46, 74, 74, 30, 46, 27, 34, 47, 42, 63, 92, 38, 71, 54, 72,101, 96,103,103,112,112,124,109,115,102, 66, 89,113, 85,119,122,111,111, 91,123];
s =     [ 16, 13, 16, 18, 18, 17, 11, 19, 18, 14, 10, 18, 14, 10, 13, 13, 19, 13, 10, 18, 16, 13, 16, 18, 18, 17, 11, 19, 18, 14, 10, 18, 14, 10, 13, 13, 19, 13, 10, 18];
q =     [  2,  3,  2,  3,  1,  4,  2,  4,  1,  1,  1,  4,  3,  2,  2,  4,  1,  4,  1,  3, -2, -3, -2, -3, -1, -4, -2, -4, -1, -1, -1, -4, -3, -2, -2, -4, -1, -4, -1, -3];
